sat
(:cnf-encoding-aux-vars 4
 :eliminated-vars       63
 :max-memory            18.35
 :memory                18.14
 :nlsat-conflicts       10
 :nlsat-decisions       18
 :nlsat-propagations    73
 :nlsat-stages          11
 :num-allocs            69835
 :rlimit-count          16741
 :time                  0.01
 :total-time            0.02)
